nPeces = 20;

durada = [5,5,10,15,25,10,15,25,40,15,20,10,35,40,40,35,5,25,30,10];

nInstruments = 4;

requereix = [| 0, 3, 0, 3, 
| 0, 0, 1, 1, 
| 3, 0, 0, 1, 
| 0, 0, 2, 2, 
| 2, 0, 0, 1, 
| 0, 3, 3, 0, 
| 3, 0, 2, 0, 
| 0, 2, 0, 3, 
| 0, 3, 2, 0, 
| 1, 2, 0, 0, 
| 0, 0, 1, 2, 
| 0, 1, 0, 1, 
| 0, 0, 1, 2, 
| 3, 0, 2, 0, 
| 0, 3, 0, 1, 
| 0, 3, 0, 2, 
| 0, 2, 0, 1, 
| 0, 1, 1, 0, 
| 3, 0, 0, 3, 
| 0, 1, 0, 3, 
|];

nMusics = 15;

saptocar = [| true, true, false, true, 
| true, false, false, true, 
| false, false, true, false, 
| false, true, false, false, 
| true, false, false, false, 
| true, true, true, false, 
| false, true, false, true, 
| true, true, false, false, 
| false, false, false, true, 
| false, true, true, true, 
| true, false, false, false, 
| true, false, false, false, 
| false, true, true, false, 
| false, true, false, true, 
| true, true, false, false, 
|];

pressupost = 1330;

salari = [3,2,2,2,2,3,2,2,2,3,2,2,2,2,2];

nPrecs = 37;
pred = [1,1,1,2,2,2,3,3,3,4,4,5,5,6,6,6,7,7,7,8,8,9,9,9,10,10,11,11,12,12,13,13,14,15,16,16,17];
succ = [11,12,14,9,6,7,4,5,14,11,7,9,7,8,10,15,8,20,12,16,17,17,18,11,18,13,19,20,16,15,20,14,16,17,18,19,19];

